100
32
21
17
17
1
3
9
17
8
9
25
1
8
1
18
1
14
2
11
2
2
1
15
10
1
11
8
2
5
4
17
2
1
3
19
2
1
3
1
1
2
1
2
1
17
2
1
17
4
3
3
2
3
1
1
3
2
2
3
17
5
4
1
1
1
1
17
3
1
1
1
2
1
2
2
1
3
2
1
1
3
1
1
4
4
20
16
1
2
2
2
1
1
4
2
2
1
2
1
1
2